p edge 500 99
e 442 490 1.000000
e 442 486 1.000000
e 486 490 1.000000
e 29 435 1.000000
e 29 47 1.000000
e 47 435 1.000000
e 44 185 1.000000
e 44 428 1.000000
e 185 428 1.000000
e 87 377 1.000000
e 87 415 1.000000
e 377 415 1.000000
e 343 438 1.000000
e 158 343 1.000000
e 158 438 1.000000
e 129 311 1.000000
e 109 129 1.000000
e 109 311 1.000000
e 19 311 1.000000
e 19 298 1.000000
e 298 311 1.000000
e 82 349 1.000000
e 82 221 1.000000
e 221 349 1.000000
e 327 412 1.000000
e 202 327 1.000000
e 202 412 1.000000
e 371 441 1.000000
e 261 371 1.000000
e 261 441 1.000000
e 191 487 1.000000
e 191 279 1.000000
e 279 487 1.000000
e 228 480 1.000000
e 228 258 1.000000
e 258 480 1.000000
e 138 462 1.000000
e 19 138 1.000000
e 19 462 1.000000
e 15 446 1.000000
e 15 187 1.000000
e 187 446 1.000000
e 239 478 1.000000
e 164 239 1.000000
e 164 478 1.000000
e 195 465 1.000000
e 195 217 1.000000
e 217 465 1.000000
e 453 457 1.000000
e 270 457 1.000000
e 270 453 1.000000
e 85 287 1.000000
e 85 91 1.000000
e 91 287 1.000000
e 119 121 1.000000
e 13 121 1.000000
e 13 119 1.000000
e 91 167 1.000000
e 89 91 1.000000
e 89 167 1.000000
e 70 262 1.000000
e 70 185 1.000000
e 185 262 1.000000
e 264 346 1.000000
e 264 287 1.000000
e 287 346 1.000000
e 94 458 1.000000
e 94 229 1.000000
e 229 458 1.000000
e 213 408 1.000000
e 213 377 1.000000
e 377 408 1.000000
e 269 465 1.000000
e 269 466 1.000000
e 465 466 1.000000
e 391 405 1.000000
e 187 391 1.000000
e 187 405 1.000000
e 182 304 1.000000
e 182 186 1.000000
e 186 304 1.000000
e 440 493 1.000000
e 229 440 1.000000
e 229 493 1.000000
e 83 489 1.000000
e 83 387 1.000000
e 387 489 1.000000
e 205 367 1.000000
e 205 379 1.000000
e 367 379 1.000000
e 237 336 1.000000
e 237 272 1.000000
e 272 336 1.000000
e 128 251 1.000000
e 128 143 1.000000
e 143 251 1.000000
e 256 474 1.000000
e 256 257 1.000000
e 257 474 1.000000
